benchmarks/INST_36x36/15/inst36x36_15_17.txt
6
1
-1	20	-1	-1	-1	6	-1	28	3	-1	10	-1	-1	-1	-1	-1	-1	-1	-1	-1	5	-1	-1	-1	-1	-1	-1	-1	-1	-1	-1	-1	-1	-1	-1	-1
-1	-1	18	-1	-1	-1	-1	-1	-1	-1	-1	-1	3	-1	-1	-1	-1	-1	-1	-1	-1	-1	-1	-1	-1	-1	-1	-1	-1	-1	-1	-1	-1	-1	-1	11
-1	32	-1	-1	-1	-1	34	-1	-1	4	-1	29	-1	-1	-1	-1	-1	-1	-1	-1	-1	-1	-1	22	28	21	-1	-1	-1	-1	-1	-1	-1	-1	-1	30
-1	-1	-1	-1	-1	-1	-1	-1	-1	-1	-1	-1	-1	-1	-1	-1	-1	-1	-1	-1	-1	-1	-1	-1	-1	-1	-1	-1	-1	-1	24	-1	-1	-1	-1	-1
-1	-1	22	34	-1	33	5	-1	30	-1	-1	-1	-1	-1	-1	-1	-1	-1	-1	-1	-1	-1	-1	-1	-1	-1	-1	-1	-1	-1	-1	-1	-1	29	-1	-1
-1	13	-1	-1	15	-1	26	22	35	-1	-1	-1	-1	-1	-1	-1	-1	-1	4	-1	-1	-1	-1	-1	30	-1	12	-1	-1	-1	-1	-1	-1	1	-1	-1
-1	-1	-1	-1	-1	-1	-1	-1	-1	-1	-1	-1	-1	21	22	-1	-1	-1	-1	26	-1	-1	-1	-1	-1	13	-1	-1	-1	-1	31	-1	-1	-1	-1	-1
-1	-1	-1	-1	-1	20	-1	-1	-1	22	-1	-1	-1	-1	-1	-1	7	-1	-1	-1	36	29	-1	13	-1	-1	-1	-1	8	-1	-1	27	34	-1	-1	-1
-1	-1	-1	-1	-1	7	-1	34	-1	-1	12	-1	-1	-1	-1	-1	-1	29	-1	-1	-1	-1	8	-1	-1	-1	-1	-1	-1	-1	-1	-1	-1	25	-1	-1
-1	-1	-1	-1	-1	-1	-1	-1	-1	-1	-1	-1	-1	-1	-1	-1	-1	-1	-1	-1	-1	5	-1	-1	-1	-1	-1	-1	-1	-1	-1	33	-1	30	-1	-1
-1	-1	-1	-1	-1	-1	-1	-1	-1	-1	15	-1	-1	-1	-1	-1	-1	30	-1	-1	-1	14	-1	34	-1	3	6	-1	18	-1	-1	1	-1	-1	11	-1
-1	-1	-1	-1	-1	-1	-1	-1	32	14	-1	-1	-1	-1	-1	-1	-1	-1	-1	-1	-1	11	-1	-1	-1	-1	-1	-1	34	-1	-1	-1	-1	-1	-1	-1
-1	-1	-1	-1	-1	-1	-1	24	-1	-1	-1	4	-1	-1	-1	-1	-1	-1	-1	-1	-1	-1	-1	-1	-1	-1	11	-1	-1	-1	30	-1	-1	-1	-1	-1
-1	-1	-1	-1	-1	-1	10	-1	-1	-1	-1	-1	-1	-1	-1	-1	-1	-1	19	-1	-1	-1	-1	-1	-1	14	-1	31	30	-1	-1	-1	-1	-1	-1	-1
-1	-1	-1	-1	5	-1	-1	-1	-1	-1	-1	17	-1	-1	27	-1	-1	-1	28	-1	-1	-1	30	-1	-1	-1	-1	-1	-1	-1	-1	-1	-1	-1	-1	-1
-1	-1	-1	-1	-1	-1	12	-1	-1	-1	-1	25	-1	26	-1	3	-1	-1	36	-1	-1	23	-1	-1	-1	-1	-1	-1	-1	-1	-1	-1	-1	-1	-1	-1
-1	-1	-1	-1	-1	-1	-1	-1	-1	26	-1	-1	34	-1	-1	-1	-1	-1	-1	-1	-1	-1	-1	-1	-1	-1	-1	-1	-1	-1	-1	-1	-1	3	1	36
-1	-1	29	-1	-1	-1	-1	-1	31	-1	-1	-1	-1	-1	-1	-1	-1	-1	-1	-1	-1	-1	-1	-1	-1	-1	34	22	-1	-1	-1	2	-1	-1	-1	-1
-1	-1	24	-1	-1	18	-1	-1	-1	36	-1	-1	-1	12	-1	-1	29	-1	-1	-1	-1	-1	-1	-1	-1	-1	-1	-1	-1	23	-1	35	-1	-1	-1	-1
-1	-1	-1	32	-1	13	-1	35	-1	-1	-1	-1	-1	15	21	-1	-1	23	5	-1	31	-1	-1	11	-1	-1	-1	-1	-1	-1	-1	-1	-1	-1	-1	-1
-1	35	-1	21	-1	-1	13	-1	-1	-1	-1	-1	-1	-1	-1	-1	-1	-1	18	-1	-1	-1	23	-1	-1	-1	-1	-1	-1	9	-1	32	-1	-1	17	-1
19	-1	-1	-1	-1	-1	-1	-1	-1	-1	-1	-1	-1	-1	-1	-1	-1	-1	-1	-1	-1	-1	-1	-1	-1	-1	-1	-1	-1	-1	25	-1	10	-1	7	24
-1	-1	-1	-1	-1	-1	-1	-1	-1	-1	-1	14	-1	-1	-1	-1	-1	34	-1	-1	-1	-1	-1	-1	-1	-1	-1	-1	-1	-1	-1	-1	-1	-1	-1	-1
-1	-1	-1	-1	-1	-1	-1	-1	1	-1	26	-1	-1	-1	-1	-1	-1	-1	-1	-1	-1	-1	-1	-1	-1	-1	-1	18	-1	-1	-1	-1	-1	-1	-1	-1
-1	-1	-1	13	-1	31	-1	-1	-1	-1	34	-1	-1	-1	-1	-1	-1	-1	-1	-1	-1	-1	-1	-1	-1	-1	-1	-1	-1	-1	-1	17	29	-1	-1	-1
10	-1	-1	-1	-1	-1	-1	-1	-1	19	-1	-1	-1	-1	-1	-1	-1	-1	-1	-1	20	-1	-1	-1	-1	-1	-1	-1	-1	-1	-1	-1	-1	-1	-1	31
21	-1	14	-1	18	-1	15	-1	-1	23	-1	-1	-1	-1	-1	-1	-1	-1	-1	-1	-1	25	-1	-1	-1	-1	-1	-1	-1	-1	26	-1	24	-1	-1	7
-1	-1	-1	-1	-1	-1	-1	-1	-1	-1	32	3	-1	-1	-1	-1	-1	-1	-1	-1	-1	-1	-1	-1	-1	-1	21	-1	27	-1	-1	-1	-1	-1	-1	-1
-1	-1	-1	-1	-1	-1	-1	-1	-1	-1	-1	-1	-1	-1	-1	-1	-1	-1	-1	-1	-1	-1	-1	-1	-1	-1	-1	-1	-1	-1	-1	-1	-1	-1	-1	-1
-1	-1	-1	-1	-1	-1	-1	-1	-1	-1	-1	-1	35	-1	-1	-1	-1	-1	-1	-1	-1	33	-1	-1	25	-1	13	-1	-1	-1	-1	-1	-1	6	-1	-1
-1	-1	-1	-1	-1	-1	-1	-1	-1	13	-1	-1	-1	-1	-1	-1	-1	-1	-1	32	-1	-1	-1	-1	-1	-1	-1	-1	-1	-1	-1	-1	-1	-1	-1	-1
31	-1	-1	-1	23	26	-1	-1	-1	-1	-1	-1	-1	-1	-1	-1	-1	-1	-1	-1	-1	-1	-1	-1	-1	-1	8	11	-1	-1	12	-1	-1	-1	-1	-1
-1	-1	-1	-1	11	-1	-1	-1	-1	-1	-1	-1	-1	6	-1	-1	18	7	-1	-1	-1	-1	-1	-1	-1	16	-1	27	-1	-1	1	-1	-1	-1	-1	-1
-1	-1	-1	-1	-1	-1	-1	-1	-1	-1	-1	-1	-1	-1	-1	-1	-1	-1	17	-1	-1	-1	-1	-1	7	36	-1	-1	-1	-1	-1	-1	16	32	-1	-1
-1	-1	-1	-1	-1	15	-1	-1	16	-1	-1	-1	21	-1	-1	-1	23	20	-1	-1	-1	-1	-1	-1	13	-1	-1	-1	-1	-1	-1	-1	-1	-1	-1	-1
-1	-1	7	-1	-1	-1	20	-1	-1	21	-1	-1	12	-1	31	-1	-1	-1	-1	-1	-1	-1	-1	-1	9	1	-1	-1	-1	28	-1	-1	-1	-1	-1	-1
